BAYES
625
2 2 2 2 2 2 2 2 2 2 2 2 2 2 2 2 2 2 2 2 2 2 2 2 2 2 2 2 2 2 2 2 2 2 2 2 2 2 2 2 2 2 2 2 2 2 2 2 2 2 2 2 2 2 2 2 2 2 2 2 2 2 2 2 2 2 2 2 2 2 2 2 2 2 2 2 2 2 2 2 2 2 2 2 2 2 2 2 2 2 2 2 2 2 2 2 2 2 2 2 2 2 2 2 2 2 2 2 2 2 2 2 2 2 2 2 2 2 2 2 2 2 2 2 2 2 2 2 2 2 2 2 2 2 2 2 2 2 2 2 2 2 2 2 2 2 2 2 2 2 2 2 2 2 2 2 2 2 2 2 2 2 2 2 2 2 2 2 2 2 2 2 2 2 2 2 2 2 2 2 2 2 2 2 2 2 2 2 2 2 2 2 2 2 2 2 2 2 2 2 2 2 2 2 2 2 2 2 2 2 2 2 2 2 2 2 2 2 2 2 2 2 2 2 2 2 2 2 2 2 2 2 2 2 2 2 2 2 2 2 2 2 2 2 2 2 2 2 2 2 2 2 2 2 2 2 2 2 2 2 2 2 2 2 2 2 2 2 2 2 2 2 2 2 2 2 2 2 2 2 2 2 2 2 2 2 2 2 2 2 2 2 2 2 2 2 2 2 2 2 2 2 2 2 2 2 2 2 2 2 2 2 2 2 2 2 2 2 2 2 2 2 2 2 2 2 2 2 2 2 2 2 2 2 2 2 2 2 2 2 2 2 2 2 2 2 2 2 2 2 2 2 2 2 2 2 2 2 2 2 2 2 2 2 2 2 2 2 2 2 2 2 2 2 2 2 2 2 2 2 2 2 2 2 2 2 2 2 2 2 2 2 2 2 2 2 2 2 2 2 2 2 2 2 2 2 2 2 2 2 2 2 2 2 2 2 2 2 2 2 2 2 2 2 2 2 2 2 2 2 2 2 2 2 2 2 2 2 2 2 2 2 2 2 2 2 2 2 2 2 2 2 2 2 2 2 2 2 2 2 2 2 2 2 2 2 2 2 2 2 2 2 2 2 2 2 2 2 2 2 2 2 2 2 2 2 2 2 2 2 2 2 2 2 2 2 2 2 2 2 2 2 2 2 2 2 2 2 2 2 2 2 2 2 2 2 2 2 2 2 2 2 2 2 2 2 2 2 2 2 2 2 2 2 2 2 2 2 2 2 2 2 2 2 2 2 2 2 2 2 2 2 2 2 2 2 2 2 2 2 2 2 2 2 2 2 2 2 2 2 2 2 2 2 2 2 2 2 2 2 2 2 2 2 2 2 2 2 2 2 2 2 2 2 2 2 2 2 2 2 2 2 2 2 2 2 2 2 2 2 2 2 2 2 2 2 2 2 2 2 2 2 2 2 2
625
1 0
2 0 1
2 1 2
2 2 3
2 3 4
2 4 5
2 5 6
2 6 7
2 7 8
2 8 9
2 9 10
2 10 11
2 11 12
2 12 13
2 13 14
2 14 15
2 15 16
2 16 17
2 17 18
2 18 19
2 19 20
2 20 21
2 21 22
2 22 23
2 23 24
2 0 25
3 1 25 26
3 2 26 27
3 3 27 28
3 4 28 29
3 5 29 30
3 6 30 31
3 7 31 32
3 8 32 33
3 9 33 34
3 10 34 35
3 11 35 36
3 12 36 37
3 13 37 38
3 14 38 39
3 15 39 40
3 16 40 41
3 17 41 42
3 18 42 43
3 19 43 44
3 20 44 45
3 21 45 46
3 22 46 47
3 23 47 48
3 24 48 49
2 25 50
3 26 50 51
3 27 51 52
3 28 52 53
3 29 53 54
3 30 54 55
3 31 55 56
3 32 56 57
3 33 57 58
3 34 58 59
3 35 59 60
3 36 60 61
3 37 61 62
3 38 62 63
3 39 63 64
3 40 64 65
3 41 65 66
3 42 66 67
3 43 67 68
3 44 68 69
3 45 69 70
3 46 70 71
3 47 71 72
3 48 72 73
3 49 73 74
2 50 75
3 51 75 76
3 52 76 77
3 53 77 78
3 54 78 79
3 55 79 80
3 56 80 81
3 57 81 82
3 58 82 83
3 59 83 84
3 60 84 85
3 61 85 86
3 62 86 87
3 63 87 88
3 64 88 89
3 65 89 90
3 66 90 91
3 67 91 92
3 68 92 93
3 69 93 94
3 70 94 95
3 71 95 96
3 72 96 97
3 73 97 98
3 74 98 99
2 75 100
3 76 100 101
3 77 101 102
3 78 102 103
3 79 103 104
3 80 104 105
3 81 105 106
3 82 106 107
3 83 107 108
3 84 108 109
3 85 109 110
3 86 110 111
3 87 111 112
3 88 112 113
3 89 113 114
3 90 114 115
3 91 115 116
3 92 116 117
3 93 117 118
3 94 118 119
3 95 119 120
3 96 120 121
3 97 121 122
3 98 122 123
3 99 123 124
2 100 125
3 101 125 126
3 102 126 127
3 103 127 128
3 104 128 129
3 105 129 130
3 106 130 131
3 107 131 132
3 108 132 133
3 109 133 134
3 110 134 135
3 111 135 136
3 112 136 137
3 113 137 138
3 114 138 139
3 115 139 140
3 116 140 141
3 117 141 142
3 118 142 143
3 119 143 144
3 120 144 145
3 121 145 146
3 122 146 147
3 123 147 148
3 124 148 149
2 125 150
3 126 150 151
3 127 151 152
3 128 152 153
3 129 153 154
3 130 154 155
3 131 155 156
3 132 156 157
3 133 157 158
3 134 158 159
3 135 159 160
3 136 160 161
3 137 161 162
3 138 162 163
3 139 163 164
3 140 164 165
3 141 165 166
3 142 166 167
3 143 167 168
3 144 168 169
3 145 169 170
3 146 170 171
3 147 171 172
3 148 172 173
3 149 173 174
2 150 175
3 151 175 176
3 152 176 177
3 153 177 178
3 154 178 179
3 155 179 180
3 156 180 181
3 157 181 182
3 158 182 183
3 159 183 184
3 160 184 185
3 161 185 186
3 162 186 187
3 163 187 188
3 164 188 189
3 165 189 190
3 166 190 191
3 167 191 192
3 168 192 193
3 169 193 194
3 170 194 195
3 171 195 196
3 172 196 197
3 173 197 198
3 174 198 199
2 175 200
3 176 200 201
3 177 201 202
3 178 202 203
3 179 203 204
3 180 204 205
3 181 205 206
3 182 206 207
3 183 207 208
3 184 208 209
3 185 209 210
3 186 210 211
3 187 211 212
3 188 212 213
3 189 213 214
3 190 214 215
3 191 215 216
3 192 216 217
3 193 217 218
3 194 218 219
3 195 219 220
3 196 220 221
3 197 221 222
3 198 222 223
3 199 223 224
2 200 225
3 201 225 226
3 202 226 227
3 203 227 228
3 204 228 229
3 205 229 230
3 206 230 231
3 207 231 232
3 208 232 233
3 209 233 234
3 210 234 235
3 211 235 236
3 212 236 237
3 213 237 238
3 214 238 239
3 215 239 240
3 216 240 241
3 217 241 242
3 218 242 243
3 219 243 244
3 220 244 245
3 221 245 246
3 222 246 247
3 223 247 248
3 224 248 249
2 225 250
3 226 250 251
3 227 251 252
3 228 252 253
3 229 253 254
3 230 254 255
3 231 255 256
3 232 256 257
3 233 257 258
3 234 258 259
3 235 259 260
3 236 260 261
3 237 261 262
3 238 262 263
3 239 263 264
3 240 264 265
3 241 265 266
3 242 266 267
3 243 267 268
3 244 268 269
3 245 269 270
3 246 270 271
3 247 271 272
3 248 272 273
3 249 273 274
2 250 275
3 251 275 276
3 252 276 277
3 253 277 278
3 254 278 279
3 255 279 280
3 256 280 281
3 257 281 282
3 258 282 283
3 259 283 284
3 260 284 285
3 261 285 286
3 262 286 287
3 263 287 288
3 264 288 289
3 265 289 290
3 266 290 291
3 267 291 292
3 268 292 293
3 269 293 294
3 270 294 295
3 271 295 296
3 272 296 297
3 273 297 298
3 274 298 299
2 275 300
3 276 300 301
3 277 301 302
3 278 302 303
3 279 303 304
3 280 304 305
3 281 305 306
3 282 306 307
3 283 307 308
3 284 308 309
3 285 309 310
3 286 310 311
3 287 311 312
3 288 312 313
3 289 313 314
3 290 314 315
3 291 315 316
3 292 316 317
3 293 317 318
3 294 318 319
3 295 319 320
3 296 320 321
3 297 321 322
3 298 322 323
3 299 323 324
2 300 325
3 301 325 326
3 302 326 327
3 303 327 328
3 304 328 329
3 305 329 330
3 306 330 331
3 307 331 332
3 308 332 333
3 309 333 334
3 310 334 335
3 311 335 336
3 312 336 337
3 313 337 338
3 314 338 339
3 315 339 340
3 316 340 341
3 317 341 342
3 318 342 343
3 319 343 344
3 320 344 345
3 321 345 346
3 322 346 347
3 323 347 348
3 324 348 349
2 325 350
3 326 350 351
3 327 351 352
3 328 352 353
3 329 353 354
3 330 354 355
3 331 355 356
3 332 356 357
3 333 357 358
3 334 358 359
3 335 359 360
3 336 360 361
3 337 361 362
3 338 362 363
3 339 363 364
3 340 364 365
3 341 365 366
3 342 366 367
3 343 367 368
3 344 368 369
3 345 369 370
3 346 370 371
3 347 371 372
3 348 372 373
3 349 373 374
2 350 375
3 351 375 376
3 352 376 377
3 353 377 378
3 354 378 379
3 355 379 380
3 356 380 381
3 357 381 382
3 358 382 383
3 359 383 384
3 360 384 385
3 361 385 386
3 362 386 387
3 363 387 388
3 364 388 389
3 365 389 390
3 366 390 391
3 367 391 392
3 368 392 393
3 369 393 394
3 370 394 395
3 371 395 396
3 372 396 397
3 373 397 398
3 374 398 399
2 375 400
3 376 400 401
3 377 401 402
3 378 402 403
3 379 403 404
3 380 404 405
3 381 405 406
3 382 406 407
3 383 407 408
3 384 408 409
3 385 409 410
3 386 410 411
3 387 411 412
3 388 412 413
3 389 413 414
3 390 414 415
3 391 415 416
3 392 416 417
3 393 417 418
3 394 418 419
3 395 419 420
3 396 420 421
3 397 421 422
3 398 422 423
3 399 423 424
2 400 425
3 401 425 426
3 402 426 427
3 403 427 428
3 404 428 429
3 405 429 430
3 406 430 431
3 407 431 432
3 408 432 433
3 409 433 434
3 410 434 435
3 411 435 436
3 412 436 437
3 413 437 438
3 414 438 439
3 415 439 440
3 416 440 441
3 417 441 442
3 418 442 443
3 419 443 444
3 420 444 445
3 421 445 446
3 422 446 447
3 423 447 448
3 424 448 449
2 425 450
3 426 450 451
3 427 451 452
3 428 452 453
3 429 453 454
3 430 454 455
3 431 455 456
3 432 456 457
3 433 457 458
3 434 458 459
3 435 459 460
3 436 460 461
3 437 461 462
3 438 462 463
3 439 463 464
3 440 464 465
3 441 465 466
3 442 466 467
3 443 467 468
3 444 468 469
3 445 469 470
3 446 470 471
3 447 471 472
3 448 472 473
3 449 473 474
2 450 475
3 451 475 476
3 452 476 477
3 453 477 478
3 454 478 479
3 455 479 480
3 456 480 481
3 457 481 482
3 458 482 483
3 459 483 484
3 460 484 485
3 461 485 486
3 462 486 487
3 463 487 488
3 464 488 489
3 465 489 490
3 466 490 491
3 467 491 492
3 468 492 493
3 469 493 494
3 470 494 495
3 471 495 496
3 472 496 497
3 473 497 498
3 474 498 499
2 475 500
3 476 500 501
3 477 501 502
3 478 502 503
3 479 503 504
3 480 504 505
3 481 505 506
3 482 506 507
3 483 507 508
3 484 508 509
3 485 509 510
3 486 510 511
3 487 511 512
3 488 512 513
3 489 513 514
3 490 514 515
3 491 515 516
3 492 516 517
3 493 517 518
3 494 518 519
3 495 519 520
3 496 520 521
3 497 521 522
3 498 522 523
3 499 523 524
2 500 525
3 501 525 526
3 502 526 527
3 503 527 528
3 504 528 529
3 505 529 530
3 506 530 531
3 507 531 532
3 508 532 533
3 509 533 534
3 510 534 535
3 511 535 536
3 512 536 537
3 513 537 538
3 514 538 539
3 515 539 540
3 516 540 541
3 517 541 542
3 518 542 543
3 519 543 544
3 520 544 545
3 521 545 546
3 522 546 547
3 523 547 548
3 524 548 549
2 525 550
3 526 550 551
3 527 551 552
3 528 552 553
3 529 553 554
3 530 554 555
3 531 555 556
3 532 556 557
3 533 557 558
3 534 558 559
3 535 559 560
3 536 560 561
3 537 561 562
3 538 562 563
3 539 563 564
3 540 564 565
3 541 565 566
3 542 566 567
3 543 567 568
3 544 568 569
3 545 569 570
3 546 570 571
3 547 571 572
3 548 572 573
3 549 573 574
2 550 575
3 551 575 576
3 552 576 577
3 553 577 578
3 554 578 579
3 555 579 580
3 556 580 581
3 557 581 582
3 558 582 583
3 559 583 584
3 560 584 585
3 561 585 586
3 562 586 587
3 563 587 588
3 564 588 589
3 565 589 590
3 566 590 591
3 567 591 592
3 568 592 593
3 569 593 594
3 570 594 595
3 571 595 596
3 572 596 597
3 573 597 598
3 574 598 599
2 575 600
3 576 600 601
3 577 601 602
3 578 602 603
3 579 603 604
3 580 604 605
3 581 605 606
3 582 606 607
3 583 607 608
3 584 608 609
3 585 609 610
3 586 610 611
3 587 611 612
3 588 612 613
3 589 613 614
3 590 614 615
3 591 615 616
3 592 616 617
3 593 617 618
3 594 618 619
3 595 619 620
3 596 620 621
3 597 621 622
3 598 622 623
3 599 623 624

2
0.0138856 0.986114
4
0.289035 0.710965 0.7448 0.2552
4
0.0 1.0 1.0 0.0
4
0.0 1.0 1.0 0.0
4
1.0 0.0 0.0 1.0
4
0.0 1.0 1.0 0.0
4
1.0 0.0 0.0 1.0
4
0.0 1.0 1.0 0.0
4
0.0 1.0 1.0 0.0
4
1.0 0.0 0.0 1.0
4
1.0 0.0 0.0 1.0
4
0.0 1.0 1.0 0.0
4
1.0 0.0 0.0 1.0
4
0.330267 0.669733 0.679071 0.320929
4
0.0 1.0 1.0 0.0
4
0.0 1.0 1.0 0.0
4
0.437756 0.562244 0.427765 0.572235
4
0.0 1.0 1.0 0.0
4
0.0 1.0 1.0 0.0
4
0.0 1.0 1.0 0.0
4
0.0 1.0 1.0 0.0
4
1.0 0.0 0.0 1.0
4
0.0 1.0 1.0 0.0
4
1.0 0.0 0.0 1.0
4
0.56933 0.43067 0.532674 0.467326
4
0.0 1.0 1.0 0.0
8
0.0 1.0 0.0 1.0 0.0 1.0 1.0 0.0
8
1.0 0.0 1.0 0.0 0.0 1.0 0.0 1.0
8
1.0 0.0 1.0 0.0 0.0 1.0 1.0 0.0
8
0.0 1.0 1.0 0.0 0.0 1.0 0.0 1.0
8
0.0 1.0 0.0 1.0 0.0 1.0 1.0 0.0
8
0.734439 0.265561 0.340078 0.659922 0.415068 0.584932 0.0827528 0.917247
8
1.0 0.0 0.0 1.0 0.0 1.0 0.0 1.0
8
1.0 0.0 1.0 0.0 0.0 1.0 1.0 0.0
8
0.0 1.0 1.0 0.0 0.0 1.0 0.0 1.0
8
0.0 1.0 0.0 1.0 1.0 0.0 1.0 0.0
8
0.79911 0.20089 0.764893 0.235107 0.84582 0.15418 0.674728 0.325272
8
1.0 0.0 0.0 1.0 0.0 1.0 1.0 0.0
8
1.0 0.0 0.0 1.0 1.0 0.0 1.0 0.0
8
0.0 1.0 0.0 1.0 1.0 0.0 0.0 1.0
8
0.0 1.0 0.0 1.0 1.0 0.0 1.0 0.0
8
1.0 0.0 1.0 0.0 1.0 0.0 0.0 1.0
8
0.0 1.0 1.0 0.0 1.0 0.0 0.0 1.0
8
0.0 1.0 1.0 0.0 0.0 1.0 0.0 1.0
8
1.0 0.0 1.0 0.0 0.0 1.0 1.0 0.0
8
0.292513 0.707487 0.677591 0.322409 0.928333 0.0716665 0.88665 0.11335
8
1.0 0.0 0.0 1.0 1.0 0.0 0.0 1.0
8
0.0 1.0 1.0 0.0 1.0 0.0 1.0 0.0
8
0.0 1.0 0.0 1.0 0.0 1.0 1.0 0.0
8
0.0 1.0 1.0 0.0 1.0 0.0 1.0 0.0
4
0.0 1.0 1.0 0.0
8
0.62049 0.37951 0.0717212 0.928279 0.0218016 0.978198 0.611878 0.388122
8
0.0 1.0 1.0 0.0 0.0 1.0 0.0 1.0
8
0.743139 0.256861 0.857629 0.142371 0.548563 0.451437 0.106684 0.893316
8
0.0 1.0 0.0 1.0 0.0 1.0 1.0 0.0
8
0.555951 0.444049 0.855482 0.144518 0.634748 0.365252 0.872108 0.127892
8
0.397827 0.602173 0.000976883 0.999023 0.679424 0.320576 0.596725 0.403275
8
1.0 0.0 1.0 0.0 0.0 1.0 1.0 0.0
8
0.665489 0.334511 0.318048 0.681952 0.369304 0.630696 0.916374 0.0836262
8
0.0 1.0 1.0 0.0 0.0 1.0 1.0 0.0
8
0.435643 0.564357 0.42175 0.57825 0.297321 0.702679 0.612432 0.387568
8
0.0 1.0 1.0 0.0 0.0 1.0 1.0 0.0
8
1.0 0.0 0.0 1.0 1.0 0.0 0.0 1.0
8
0.0 1.0 1.0 0.0 0.0 1.0 1.0 0.0
8
1.0 0.0 0.0 1.0 0.0 1.0 1.0 0.0
8
1.0 0.0 1.0 0.0 1.0 0.0 0.0 1.0
8
1.0 0.0 0.0 1.0 1.0 0.0 0.0 1.0
8
1.0 0.0 0.0 1.0 0.0 1.0 0.0 1.0
8
0.635006 0.364994 0.883145 0.116855 0.88123 0.11877 0.0685648 0.931435
8
1.0 0.0 0.0 1.0 0.0 1.0 0.0 1.0
8
1.0 0.0 0.0 1.0 1.0 0.0 0.0 1.0
8
0.0 1.0 1.0 0.0 0.0 1.0 0.0 1.0
8
1.0 0.0 0.0 1.0 1.0 0.0 0.0 1.0
8
1.0 0.0 0.0 1.0 1.0 0.0 1.0 0.0
8
0.0 1.0 1.0 0.0 1.0 0.0 0.0 1.0
4
0.623164 0.376836 0.965969 0.0340313
8
0.207903 0.792097 0.690456 0.309544 0.70851 0.29149 0.581141 0.418859
8
1.0 0.0 1.0 0.0 1.0 0.0 0.0 1.0
8
0.0 1.0 1.0 0.0 1.0 0.0 0.0 1.0
8
0.595805 0.404195 0.0851626 0.914837 0.26205 0.73795 0.97281 0.0271902
8
1.0 0.0 0.0 1.0 0.0 1.0 0.0 1.0
8
1.0 0.0 1.0 0.0 1.0 0.0 0.0 1.0
8
0.0 1.0 0.0 1.0 0.0 1.0 1.0 0.0
8
1.0 0.0 1.0 0.0 1.0 0.0 0.0 1.0
8
0.701334 0.298666 0.78111 0.21889 0.421105 0.578895 0.910175 0.089825
8
1.0 0.0 0.0 1.0 0.0 1.0 1.0 0.0
8
1.0 0.0 1.0 0.0 0.0 1.0 1.0 0.0
8
1.0 0.0 0.0 1.0 0.0 1.0 0.0 1.0
8
0.410235 0.589765 0.276484 0.723516 0.341132 0.658868 0.153586 0.846414
8
0.574398 0.425602 0.320608 0.679392 0.383728 0.616272 0.576706 0.423294
8
0.15729 0.84271 0.27804 0.72196 0.753721 0.246279 0.578395 0.421605
8
1.0 0.0 1.0 0.0 0.0 1.0 0.0 1.0
8
0.0 1.0 1.0 0.0 0.0 1.0 0.0 1.0
8
0.0418119 0.958188 0.390875 0.609125 0.637076 0.362924 0.417206 0.582794
8
0.397632 0.602368 0.827441 0.172559 0.0274534 0.972547 0.738764 0.261236
8
0.801469 0.198531 0.313163 0.686837 0.301635 0.698365 0.185196 0.814804
8
0.274246 0.725754 0.342487 0.657513 0.167909 0.832091 0.0279672 0.972033
8
0.356124 0.643876 0.354489 0.645511 0.905387 0.0946133 0.0503189 0.949681
8
0.0 1.0 1.0 0.0 1.0 0.0 1.0 0.0
8
0.34066 0.65934 0.353448 0.646552 0.563045 0.436955 0.757866 0.242134
4
1.0 0.0 0.0 1.0
8
1.0 0.0 0.0 1.0 0.0 1.0 0.0 1.0
8
0.118536 0.881464 0.902472 0.0975278 0.142215 0.857785 0.461022 0.538978
8
0.0 1.0 1.0 0.0 1.0 0.0 0.0 1.0
8
0.0 1.0 1.0 0.0 0.0 1.0 1.0 0.0
8
1.0 0.0 1.0 0.0 0.0 1.0 1.0 0.0
8
1.0 0.0 0.0 1.0 0.0 1.0 0.0 1.0
8
0.252434 0.747566 0.172107 0.827893 0.394358 0.605642 0.185774 0.814226
8
1.0 0.0 1.0 0.0 0.0 1.0 0.0 1.0
8
0.157564 0.842436 0.574724 0.425276 0.147236 0.852764 0.584069 0.415931
8
1.0 0.0 0.0 1.0 0.0 1.0 1.0 0.0
8
0.986015 0.0139851 0.424061 0.575939 0.423719 0.576281 0.934959 0.0650412
8
0.439866 0.560134 0.446948 0.553052 0.15163 0.84837 0.560429 0.439571
8
0.979653 0.0203467 0.812864 0.187136 0.0917209 0.908279 0.374011 0.625989
8
0.276432 0.723568 0.636338 0.363662 0.302947 0.697053 0.363615 0.636385
8
0.0 1.0 1.0 0.0 0.0 1.0 1.0 0.0
8
1.0 0.0 0.0 1.0 1.0 0.0 1.0 0.0
8
0.927159 0.0728411 0.664053 0.335947 0.353971 0.646029 0.350877 0.649123
8
0.0 1.0 0.0 1.0 1.0 0.0 0.0 1.0
8
0.0 1.0 1.0 0.0 1.0 0.0 0.0 1.0
8
0.162674 0.837326 0.333726 0.666274 0.404515 0.595485 0.465621 0.534379
8
1.0 0.0 1.0 0.0 0.0 1.0 1.0 0.0
8
1.0 0.0 1.0 0.0 0.0 1.0 1.0 0.0
8
0.0 1.0 0.0 1.0 0.0 1.0 1.0 0.0
8
0.717099 0.282901 0.946219 0.0537811 0.558687 0.441313 0.763059 0.236941
4
0.0 1.0 1.0 0.0
8
1.0 0.0 0.0 1.0 1.0 0.0 1.0 0.0
8
1.0 0.0 0.0 1.0 0.0 1.0 0.0 1.0
8
1.0 0.0 0.0 1.0 0.0 1.0 1.0 0.0
8
1.0 0.0 1.0 0.0 0.0 1.0 0.0 1.0
8
0.0 1.0 0.0 1.0 1.0 0.0 0.0 1.0
8
0.0 1.0 0.0 1.0 1.0 0.0 0.0 1.0
8
0.0 1.0 0.0 1.0 1.0 0.0 0.0 1.0
8
0.813211 0.186789 0.896467 0.103533 0.910173 0.089827 0.515401 0.484599
8
0.0 1.0 1.0 0.0 1.0 0.0 0.0 1.0
8
1.0 0.0 0.0 1.0 0.0 1.0 1.0 0.0
8
0.0 1.0 0.0 1.0 0.0 1.0 1.0 0.0
8
0.0 1.0 1.0 0.0 1.0 0.0 1.0 0.0
8
0.0 1.0 0.0 1.0 0.0 1.0 1.0 0.0
8
0.724507 0.275493 0.743384 0.256616 0.798854 0.201146 0.63468 0.36532
8
1.0 0.0 0.0 1.0 1.0 0.0 0.0 1.0
8
0.0 1.0 1.0 0.0 0.0 1.0 0.0 1.0
8
0.0 1.0 0.0 1.0 1.0 0.0 1.0 0.0
8
0.80859 0.19141 0.398886 0.601114 0.517239 0.482761 0.659377 0.340623
8
0.0 1.0 0.0 1.0 1.0 0.0 0.0 1.0
8
0.561529 0.438471 0.266089 0.733911 0.686467 0.313533 0.360383 0.639617
8
0.945252 0.054748 0.872697 0.127303 0.818608 0.181392 0.955527 0.0444728
8
0.0 1.0 0.0 1.0 1.0 0.0 0.0 1.0
8
0.0 1.0 1.0 0.0 0.0 1.0 1.0 0.0
8
1.0 0.0 1.0 0.0 1.0 0.0 0.0 1.0
4
0.627828 0.372172 0.53384 0.46616
8
0.286971 0.713029 0.0754222 0.924578 0.805168 0.194832 0.8485 0.1515
8
0.0 1.0 1.0 0.0 0.0 1.0 1.0 0.0
8
1.0 0.0 0.0 1.0 0.0 1.0 1.0 0.0
8
0.0 1.0 0.0 1.0 1.0 0.0 0.0 1.0
8
1.0 0.0 0.0 1.0 1.0 0.0 1.0 0.0
8
0.0 1.0 1.0 0.0 0.0 1.0 1.0 0.0
8
0.0 1.0 1.0 0.0 0.0 1.0 0.0 1.0
8
0.12869 0.87131 0.460887 0.539113 0.0889277 0.911072 0.565578 0.434422
8
0.0 1.0 0.0 1.0 1.0 0.0 0.0 1.0
8
1.0 0.0 0.0 1.0 1.0 0.0 1.0 0.0
8
0.665179 0.334821 0.95757 0.0424305 0.287977 0.712023 0.826869 0.173131
8
0.0 1.0 1.0 0.0 1.0 0.0 1.0 0.0
8
1.0 0.0 0.0 1.0 1.0 0.0 1.0 0.0
8
0.0 1.0 0.0 1.0 1.0 0.0 1.0 0.0
8
1.0 0.0 1.0 0.0 0.0 1.0 0.0 1.0
8
0.0 1.0 1.0 0.0 1.0 0.0 0.0 1.0
8
0.495258 0.504742 0.608016 0.391984 0.771555 0.228445 0.783235 0.216765
8
1.0 0.0 1.0 0.0 0.0 1.0 0.0 1.0
8
0.0 1.0 1.0 0.0 0.0 1.0 1.0 0.0
8
1.0 0.0 1.0 0.0 1.0 0.0 0.0 1.0
8
1.0 0.0 0.0 1.0 0.0 1.0 1.0 0.0
8
1.0 0.0 1.0 0.0 0.0 1.0 1.0 0.0
8
1.0 0.0 1.0 0.0 0.0 1.0 1.0 0.0
8
1.0 0.0 0.0 1.0 1.0 0.0 1.0 0.0
4
1.0 0.0 0.0 1.0
8
0.0682793 0.931721 0.85845 0.14155 0.964108 0.035892 0.36284 0.63716
8
1.0 0.0 0.0 1.0 0.0 1.0 1.0 0.0
8
0.0 1.0 1.0 0.0 0.0 1.0 0.0 1.0
8
1.0 0.0 0.0 1.0 0.0 1.0 1.0 0.0
8
1.0 0.0 0.0 1.0 1.0 0.0 1.0 0.0
8
1.0 0.0 0.0 1.0 0.0 1.0 0.0 1.0
8
0.0 1.0 0.0 1.0 1.0 0.0 1.0 0.0
8
1.0 0.0 1.0 0.0 0.0 1.0 0.0 1.0
8
0.0 1.0 0.0 1.0 0.0 1.0 1.0 0.0
8
0.0 1.0 1.0 0.0 0.0 1.0 0.0 1.0
8
0.434919 0.565081 0.262327 0.737673 0.588716 0.411284 0.861329 0.138671
8
0.0 1.0 1.0 0.0 0.0 1.0 0.0 1.0
8
0.0 1.0 0.0 1.0 0.0 1.0 1.0 0.0
8
1.0 0.0 0.0 1.0 1.0 0.0 1.0 0.0
8
1.0 0.0 1.0 0.0 0.0 1.0 1.0 0.0
8
0.253538 0.746462 0.805962 0.194038 0.0254228 0.974577 0.790779 0.209221
8
0.0 1.0 1.0 0.0 0.0 1.0 0.0 1.0
8
0.447035 0.552965 0.0611213 0.938879 0.861174 0.138826 0.954014 0.0459855
8
0.0 1.0 1.0 0.0 1.0 0.0 1.0 0.0
8
0.0 1.0 0.0 1.0 1.0 0.0 1.0 0.0
8
0.0 1.0 1.0 0.0 1.0 0.0 1.0 0.0
8
1.0 0.0 0.0 1.0 1.0 0.0 1.0 0.0
8
1.0 0.0 0.0 1.0 0.0 1.0 1.0 0.0
8
0.555237 0.444763 0.269822 0.730178 0.0423157 0.957684 0.416411 0.583589
4
1.0 0.0 0.0 1.0
8
0.0 1.0 0.0 1.0 0.0 1.0 1.0 0.0
8
0.0 1.0 0.0 1.0 0.0 1.0 1.0 0.0
8
1.0 0.0 0.0 1.0 1.0 0.0 0.0 1.0
8
0.911949 0.0880514 0.720902 0.279098 0.481599 0.518401 0.918973 0.0810273
8
0.0 1.0 0.0 1.0 1.0 0.0 0.0 1.0
8
1.0 0.0 0.0 1.0 1.0 0.0 1.0 0.0
8
0.0 1.0 1.0 0.0 0.0 1.0 0.0 1.0
8
0.528511 0.471489 0.548237 0.451763 0.700595 0.299405 0.626558 0.373442
8
0.00452024 0.99548 0.363815 0.636185 0.794957 0.205043 0.209476 0.790524
8
1.0 0.0 1.0 0.0 0.0 1.0 1.0 0.0
8
0.0 1.0 0.0 1.0 1.0 0.0 0.0 1.0
8
1.0 0.0 0.0 1.0 1.0 0.0 0.0 1.0
8
0.165359 0.834641 0.357105 0.642895 0.881478 0.118522 0.506335 0.493665
8
0.0 1.0 0.0 1.0 0.0 1.0 1.0 0.0
8
0.822932 0.177068 0.400363 0.599637 0.70905 0.29095 0.0324076 0.967592
8
0.317136 0.682864 0.153832 0.846168 0.281631 0.718369 0.40682 0.59318
8
0.0 1.0 1.0 0.0 1.0 0.0 0.0 1.0
8
1.0 0.0 1.0 0.0 1.0 0.0 0.0 1.0
8
0.0 1.0 1.0 0.0 1.0 0.0 1.0 0.0
8
0.832959 0.167041 0.0155391 0.984461 0.0539426 0.946057 0.65137 0.34863
8
1.0 0.0 1.0 0.0 1.0 0.0 0.0 1.0
8
0.0 1.0 1.0 0.0 1.0 0.0 0.0 1.0
8
0.0 1.0 0.0 1.0 1.0 0.0 1.0 0.0
8
0.0 1.0 0.0 1.0 1.0 0.0 0.0 1.0
4
0.0 1.0 1.0 0.0
8
1.0 0.0 0.0 1.0 1.0 0.0 1.0 0.0
8
0.0 1.0 0.0 1.0 1.0 0.0 0.0 1.0
8
1.0 0.0 1.0 0.0 0.0 1.0 0.0 1.0
8
1.0 0.0 1.0 0.0 1.0 0.0 0.0 1.0
8
0.269229 0.730771 0.0607973 0.939203 0.460623 0.539377 0.633974 0.366026
8
0.0 1.0 1.0 0.0 0.0 1.0 0.0 1.0
8
1.0 0.0 1.0 0.0 1.0 0.0 0.0 1.0
8
0.668523 0.331477 0.674028 0.325972 0.246721 0.753279 0.383664 0.616336
8
0.0 1.0 1.0 0.0 0.0 1.0 1.0 0.0
8
0.0 1.0 1.0 0.0 1.0 0.0 1.0 0.0
8
0.0 1.0 0.0 1.0 1.0 0.0 0.0 1.0
8
0.0 1.0 1.0 0.0 1.0 0.0 0.0 1.0
8
0.0 1.0 1.0 0.0 1.0 0.0 0.0 1.0
8
1.0 0.0 1.0 0.0 1.0 0.0 0.0 1.0
8
1.0 0.0 0.0 1.0 1.0 0.0 1.0 0.0
8
1.0 0.0 0.0 1.0 0.0 1.0 1.0 0.0
8
0.242714 0.757286 0.0149179 0.985082 0.811204 0.188796 0.282124 0.717876
8
1.0 0.0 1.0 0.0 0.0 1.0 0.0 1.0
8
1.0 0.0 1.0 0.0 1.0 0.0 0.0 1.0
8
0.0 1.0 1.0 0.0 0.0 1.0 1.0 0.0
8
1.0 0.0 1.0 0.0 0.0 1.0 0.0 1.0
8
1.0 0.0 0.0 1.0 0.0 1.0 1.0 0.0
8
0.0 1.0 1.0 0.0 0.0 1.0 1.0 0.0
8
0.69357 0.30643 0.943916 0.056084 0.125422 0.874578 0.45841 0.54159
4
0.0 1.0 1.0 0.0
8
1.0 0.0 1.0 0.0 1.0 0.0 0.0 1.0
8
0.408375 0.591625 0.0802562 0.919744 0.361342 0.638658 0.139957 0.860043
8
0.0 1.0 1.0 0.0 0.0 1.0 0.0 1.0
8
0.0 1.0 0.0 1.0 1.0 0.0 1.0 0.0
8
0.0 1.0 1.0 0.0 1.0 0.0 1.0 0.0
8
0.400242 0.599758 0.115927 0.884073 0.452576 0.547424 0.596928 0.403072
8
0.0462715 0.953729 0.644514 0.355486 0.703076 0.296924 0.0671138 0.932886
8
0.0 1.0 0.0 1.0 0.0 1.0 1.0 0.0
8
0.0 1.0 1.0 0.0 0.0 1.0 0.0 1.0
8
0.7322 0.2678 0.0120269 0.987973 0.729331 0.270669 0.223368 0.776632
8
1.0 0.0 1.0 0.0 0.0 1.0 1.0 0.0
8
0.0 1.0 0.0 1.0 1.0 0.0 1.0 0.0
8
0.379778 0.620222 0.0353096 0.96469 0.546693 0.453307 0.0828546 0.917145
8
0.0 1.0 1.0 0.0 1.0 0.0 0.0 1.0
8
0.0 1.0 0.0 1.0 1.0 0.0 0.0 1.0
8
0.0 1.0 0.0 1.0 0.0 1.0 1.0 0.0
8
0.556065 0.443935 0.846211 0.153789 0.078992 0.921008 0.0983606 0.901639
8
0.39264 0.60736 0.634823 0.365177 0.0564724 0.943528 0.822215 0.177785
8
0.0 1.0 1.0 0.0 1.0 0.0 0.0 1.0
8
1.0 0.0 0.0 1.0 1.0 0.0 0.0 1.0
8
0.460092 0.539908 0.532863 0.467137 0.428812 0.571188 0.192541 0.807459
8
0.0 1.0 1.0 0.0 0.0 1.0 0.0 1.0
8
0.0 1.0 0.0 1.0 0.0 1.0 1.0 0.0
8
0.093108 0.906892 0.334761 0.665239 0.912168 0.0878323 0.915323 0.0846773
4
0.870819 0.129181 0.117316 0.882684
8
0.0 1.0 1.0 0.0 1.0 0.0 1.0 0.0
8
1.0 0.0 0.0 1.0 0.0 1.0 0.0 1.0
8
0.0 1.0 0.0 1.0 1.0 0.0 1.0 0.0
8
0.0 1.0 0.0 1.0 1.0 0.0 0.0 1.0
8
0.0 1.0 1.0 0.0 0.0 1.0 0.0 1.0
8
1.0 0.0 1.0 0.0 1.0 0.0 0.0 1.0
8
0.0 1.0 0.0 1.0 0.0 1.0 1.0 0.0
8
0.0 1.0 1.0 0.0 1.0 0.0 0.0 1.0
8
1.0 0.0 0.0 1.0 0.0 1.0 0.0 1.0
8
0.0 1.0 1.0 0.0 0.0 1.0 0.0 1.0
8
0.0 1.0 1.0 0.0 1.0 0.0 0.0 1.0
8
0.50409 0.49591 0.116218 0.883782 0.390638 0.609362 0.338143 0.661857
8
1.0 0.0 0.0 1.0 1.0 0.0 0.0 1.0
8
0.0 1.0 0.0 1.0 0.0 1.0 1.0 0.0
8
1.0 0.0 0.0 1.0 1.0 0.0 1.0 0.0
8
0.977584 0.0224155 0.91186 0.0881405 0.202296 0.797704 0.674853 0.325147
8
1.0 0.0 1.0 0.0 0.0 1.0 1.0 0.0
8
1.0 0.0 0.0 1.0 0.0 1.0 1.0 0.0
8
1.0 0.0 0.0 1.0 1.0 0.0 0.0 1.0
8
0.238931 0.761069 0.859832 0.140168 0.420746 0.579254 0.74301 0.25699
8
1.0 0.0 0.0 1.0 1.0 0.0 0.0 1.0
8
0.0 1.0 1.0 0.0 0.0 1.0 0.0 1.0
8
1.0 0.0 0.0 1.0 0.0 1.0 1.0 0.0
8
0.227577 0.772423 0.106447 0.893553 0.669876 0.330124 0.823703 0.176297
4
1.0 0.0 0.0 1.0
8
0.0 1.0 0.0 1.0 1.0 0.0 0.0 1.0
8
1.0 0.0 1.0 0.0 0.0 1.0 0.0 1.0
8
0.0 1.0 0.0 1.0 0.0 1.0 1.0 0.0
8
1.0 0.0 1.0 0.0 1.0 0.0 0.0 1.0
8
1.0 0.0 1.0 0.0 1.0 0.0 0.0 1.0
8
0.350183 0.649817 0.426328 0.573672 0.775698 0.224302 0.409544 0.590456
8
1.0 0.0 1.0 0.0 1.0 0.0 0.0 1.0
8
0.0 1.0 0.0 1.0 1.0 0.0 0.0 1.0
8
1.0 0.0 0.0 1.0 0.0 1.0 1.0 0.0
8
1.0 0.0 0.0 1.0 0.0 1.0 0.0 1.0
8
0.0 1.0 1.0 0.0 0.0 1.0 1.0 0.0
8
1.0 0.0 1.0 0.0 0.0 1.0 0.0 1.0
8
0.929607 0.0703929 0.377223 0.622777 0.826117 0.173883 0.469578 0.530422
8
0.35412 0.64588 0.617069 0.382931 0.735884 0.264116 0.778603 0.221397
8
0.0 1.0 0.0 1.0 1.0 0.0 1.0 0.0
8
1.0 0.0 0.0 1.0 0.0 1.0 0.0 1.0
8
0.0 1.0 1.0 0.0 1.0 0.0 0.0 1.0
8
0.0 1.0 1.0 0.0 0.0 1.0 0.0 1.0
8
0.0 1.0 0.0 1.0 1.0 0.0 0.0 1.0
8
0.645366 0.354634 0.511702 0.488298 0.574494 0.425506 0.423969 0.576031
8
0.0 1.0 1.0 0.0 0.0 1.0 1.0 0.0
8
1.0 0.0 1.0 0.0 1.0 0.0 0.0 1.0
8
0.0 1.0 0.0 1.0 1.0 0.0 0.0 1.0
8
1.0 0.0 1.0 0.0 0.0 1.0 1.0 0.0
4
0.933078 0.0669216 0.211085 0.788915
8
1.0 0.0 1.0 0.0 0.0 1.0 0.0 1.0
8
1.0 0.0 1.0 0.0 0.0 1.0 1.0 0.0
8
0.0985051 0.901495 0.453941 0.546059 0.391201 0.608799 0.138662 0.861338
8
0.0 1.0 0.0 1.0 1.0 0.0 0.0 1.0
8
0.0 1.0 0.0 1.0 1.0 0.0 1.0 0.0
8
0.0 1.0 0.0 1.0 0.0 1.0 1.0 0.0
8
1.0 0.0 0.0 1.0 1.0 0.0 1.0 0.0
8
0.407527 0.592473 0.37466 0.62534 0.871057 0.128943 0.543915 0.456085
8
0.0 1.0 0.0 1.0 0.0 1.0 1.0 0.0
8
0.537505 0.462495 0.587128 0.412872 0.789777 0.210223 0.478625 0.521375
8
1.0 0.0 0.0 1.0 0.0 1.0 0.0 1.0
8
0.0 1.0 0.0 1.0 1.0 0.0 0.0 1.0
8
0.336629 0.663371 0.155713 0.844287 0.478268 0.521732 0.119967 0.880033
8
0.0 1.0 0.0 1.0 0.0 1.0 1.0 0.0
8
0.0 1.0 1.0 0.0 0.0 1.0 1.0 0.0
8
1.0 0.0 0.0 1.0 1.0 0.0 1.0 0.0
8
0.0 1.0 1.0 0.0 1.0 0.0 0.0 1.0
8
1.0 0.0 1.0 0.0 1.0 0.0 0.0 1.0
8
0.412948 0.587052 0.75727 0.24273 0.295171 0.704829 0.532916 0.467084
8
0.0 1.0 0.0 1.0 0.0 1.0 1.0 0.0
8
0.0 1.0 0.0 1.0 0.0 1.0 1.0 0.0
8
1.0 0.0 1.0 0.0 0.0 1.0 0.0 1.0
8
0.0 1.0 1.0 0.0 1.0 0.0 1.0 0.0
8
0.0 1.0 0.0 1.0 1.0 0.0 0.0 1.0
4
0.0 1.0 1.0 0.0
8
0.0 1.0 0.0 1.0 1.0 0.0 0.0 1.0
8
0.0 1.0 1.0 0.0 1.0 0.0 0.0 1.0
8
0.0 1.0 1.0 0.0 1.0 0.0 1.0 0.0
8
1.0 0.0 0.0 1.0 1.0 0.0 0.0 1.0
8
0.0 1.0 1.0 0.0 1.0 0.0 0.0 1.0
8
0.0 1.0 1.0 0.0 1.0 0.0 0.0 1.0
8
0.719532 0.280468 0.823089 0.176911 0.21938 0.78062 0.126707 0.873293
8
0.0 1.0 1.0 0.0 1.0 0.0 0.0 1.0
8
0.833357 0.166643 0.621339 0.378661 0.420628 0.579372 0.451715 0.548285
8
0.168898 0.831102 0.695326 0.304674 0.509834 0.490166 0.18452 0.81548
8
0.874226 0.125774 0.189629 0.810371 0.862827 0.137173 0.45635 0.54365
8
1.0 0.0 0.0 1.0 0.0 1.0 0.0 1.0
8
0.399425 0.600575 0.129938 0.870062 0.738788 0.261212 0.618805 0.381195
8
0.0 1.0 1.0 0.0 0.0 1.0 1.0 0.0
8
1.0 0.0 1.0 0.0 1.0 0.0 0.0 1.0
8
1.0 0.0 0.0 1.0 0.0 1.0 0.0 1.0
8
1.0 0.0 1.0 0.0 0.0 1.0 1.0 0.0
8
0.0 1.0 0.0 1.0 1.0 0.0 0.0 1.0
8
1.0 0.0 0.0 1.0 1.0 0.0 1.0 0.0
8
0.0 1.0 1.0 0.0 0.0 1.0 0.0 1.0
8
0.797779 0.202221 0.653006 0.346994 0.231554 0.768446 0.780986 0.219014
8
1.0 0.0 0.0 1.0 0.0 1.0 1.0 0.0
8
0.0 1.0 1.0 0.0 0.0 1.0 0.0 1.0
8
0.0 1.0 1.0 0.0 1.0 0.0 1.0 0.0
4
1.0 0.0 0.0 1.0
8
1.0 0.0 0.0 1.0 0.0 1.0 0.0 1.0
8
0.0 1.0 0.0 1.0 1.0 0.0 0.0 1.0
8
0.0 1.0 1.0 0.0 0.0 1.0 0.0 1.0
8
0.00236539 0.997635 0.126517 0.873483 0.410622 0.589378 0.296387 0.703613
8
1.0 0.0 0.0 1.0 1.0 0.0 0.0 1.0
8
0.0 1.0 0.0 1.0 0.0 1.0 1.0 0.0
8
1.0 0.0 1.0 0.0 0.0 1.0 1.0 0.0
8
0.625057 0.374943 0.775771 0.224229 0.636873 0.363127 0.115321 0.884679
8
1.0 0.0 1.0 0.0 1.0 0.0 0.0 1.0
8
0.0 1.0 1.0 0.0 0.0 1.0 0.0 1.0
8
0.655257 0.344743 0.679531 0.320469 0.64384 0.35616 0.0125814 0.987419
8
0.786575 0.213425 0.385044 0.614956 0.0772985 0.922702 0.527539 0.472461
8
0.0 1.0 1.0 0.0 0.0 1.0 0.0 1.0
8
1.0 0.0 1.0 0.0 0.0 1.0 1.0 0.0
8
0.119811 0.880189 0.75092 0.24908 0.896802 0.103198 0.416988 0.583012
8
0.139124 0.860876 0.124787 0.875213 0.15732 0.84268 0.0271104 0.97289
8
0.0 1.0 1.0 0.0 0.0 1.0 0.0 1.0
8
1.0 0.0 0.0 1.0 0.0 1.0 0.0 1.0
8
0.0 1.0 0.0 1.0 0.0 1.0 1.0 0.0
8
0.0 1.0 1.0 0.0 0.0 1.0 0.0 1.0
8
0.686941 0.313059 0.130889 0.869111 0.877989 0.122011 0.103928 0.896072
8
0.0171131 0.982887 0.228715 0.771285 0.0941355 0.905865 0.0442235 0.955776
8
0.0 1.0 0.0 1.0 0.0 1.0 1.0 0.0
8
1.0 0.0 1.0 0.0 0.0 1.0 1.0 0.0
4
0.148167 0.851833 0.270042 0.729958
8
0.0 1.0 1.0 0.0 1.0 0.0 0.0 1.0
8
0.0 1.0 0.0 1.0 0.0 1.0 1.0 0.0
8
1.0 0.0 0.0 1.0 1.0 0.0 0.0 1.0
8
1.0 0.0 0.0 1.0 1.0 0.0 1.0 0.0
8
1.0 0.0 0.0 1.0 0.0 1.0 0.0 1.0
8
1.0 0.0 0.0 1.0 0.0 1.0 0.0 1.0
8
0.400269 0.599731 0.983215 0.0167851 0.897861 0.102139 0.922509 0.0774914
8
1.0 0.0 1.0 0.0 1.0 0.0 0.0 1.0
8
0.0 1.0 1.0 0.0 1.0 0.0 1.0 0.0
8
1.0 0.0 1.0 0.0 1.0 0.0 0.0 1.0
8
1.0 0.0 0.0 1.0 1.0 0.0 0.0 1.0
8
0.507454 0.492546 0.263698 0.736302 0.73902 0.26098 0.453584 0.546416
8
0.0 1.0 1.0 0.0 0.0 1.0 1.0 0.0
8
1.0 0.0 1.0 0.0 0.0 1.0 0.0 1.0
8
1.0 0.0 1.0 0.0 1.0 0.0 0.0 1.0
8
1.0 0.0 1.0 0.0 1.0 0.0 0.0 1.0
8
1.0 0.0 1.0 0.0 0.0 1.0 0.0 1.0
8
0.0 1.0 0.0 1.0 1.0 0.0 0.0 1.0
8
1.0 0.0 0.0 1.0 0.0 1.0 0.0 1.0
8
1.0 0.0 1.0 0.0 1.0 0.0 0.0 1.0
8
0.0 1.0 1.0 0.0 1.0 0.0 0.0 1.0
8
0.0 1.0 1.0 0.0 0.0 1.0 1.0 0.0
8
1.0 0.0 0.0 1.0 0.0 1.0 0.0 1.0
8
0.551495 0.448505 0.578906 0.421094 0.375856 0.624144 0.426102 0.573898
4
1.0 0.0 0.0 1.0
8
1.0 0.0 1.0 0.0 0.0 1.0 0.0 1.0
8
1.0 0.0 0.0 1.0 1.0 0.0 1.0 0.0
8
0.0 1.0 1.0 0.0 1.0 0.0 0.0 1.0
8
1.0 0.0 1.0 0.0 0.0 1.0 1.0 0.0
8
0.0 1.0 1.0 0.0 0.0 1.0 0.0 1.0
8
0.992945 0.00705466 0.824746 0.175254 0.154034 0.845966 0.528763 0.471237
8
0.411662 0.588338 0.811018 0.188982 0.875512 0.124488 0.265381 0.734619
8
0.39159 0.60841 0.988346 0.0116536 0.47183 0.52817 0.448089 0.551911
8
0.695785 0.304215 0.38814 0.61186 0.0859808 0.914019 0.198248 0.801752
8
0.345631 0.654369 0.495729 0.504271 0.966713 0.0332866 0.77687 0.22313
8
0.0 1.0 1.0 0.0 0.0 1.0 0.0 1.0
8
1.0 0.0 1.0 0.0 1.0 0.0 0.0 1.0
8
0.0 1.0 1.0 0.0 0.0 1.0 0.0 1.0
8
1.0 0.0 0.0 1.0 1.0 0.0 1.0 0.0
8
0.0 1.0 1.0 0.0 1.0 0.0 0.0 1.0
8
1.0 0.0 0.0 1.0 1.0 0.0 1.0 0.0
8
0.346134 0.653866 0.300729 0.699271 0.61897 0.38103 0.667164 0.332836
8
0.0 1.0 1.0 0.0 0.0 1.0 1.0 0.0
8
0.865896 0.134104 0.449292 0.550708 0.477634 0.522366 0.436505 0.563495
8
0.98351 0.0164898 0.398703 0.601297 0.506854 0.493146 0.961217 0.0387832
8
0.975083 0.0249173 0.634708 0.365292 0.607418 0.392582 0.529293 0.470707
8
1.0 0.0 0.0 1.0 1.0 0.0 0.0 1.0
8
0.0 1.0 1.0 0.0 0.0 1.0 0.0 1.0
8
0.0 1.0 0.0 1.0 1.0 0.0 0.0 1.0
4
1.0 0.0 0.0 1.0
8
0.0 1.0 0.0 1.0 0.0 1.0 1.0 0.0
8
1.0 0.0 1.0 0.0 0.0 1.0 0.0 1.0
8
0.0182764 0.981724 0.2668 0.7332 0.306922 0.693078 0.301174 0.698826
8
1.0 0.0 1.0 0.0 0.0 1.0 1.0 0.0
8
1.0 0.0 1.0 0.0 0.0 1.0 0.0 1.0
8
0.355403 0.644597 0.839078 0.160922 0.666187 0.333813 0.098808 0.901192
8
0.0 1.0 1.0 0.0 0.0 1.0 0.0 1.0
8
0.0 1.0 1.0 0.0 0.0 1.0 0.0 1.0
8
0.0 1.0 1.0 0.0 1.0 0.0 0.0 1.0
8
0.0 1.0 1.0 0.0 1.0 0.0 1.0 0.0
8
0.66622 0.33378 0.0615735 0.938427 0.300706 0.699294 0.604533 0.395467
8
0.656108 0.343892 0.443611 0.556389 0.571568 0.428432 0.754916 0.245084
8
0.0 1.0 0.0 1.0 0.0 1.0 1.0 0.0
8
0.0 1.0 1.0 0.0 0.0 1.0 0.0 1.0
8
0.930558 0.069442 0.312229 0.687771 0.577524 0.422476 0.0716376 0.928362
8
0.555923 0.444077 0.438981 0.561019 0.426193 0.573807 0.416002 0.583998
8
0.0 1.0 1.0 0.0 1.0 0.0 1.0 0.0
8
1.0 0.0 0.0 1.0 1.0 0.0 1.0 0.0
8
0.0 1.0 1.0 0.0 1.0 0.0 1.0 0.0
8
1.0 0.0 0.0 1.0 0.0 1.0 1.0 0.0
8
0.338389 0.661611 0.489811 0.510189 0.33628 0.66372 0.410027 0.589973
8
1.0 0.0 1.0 0.0 1.0 0.0 0.0 1.0
8
0.0 1.0 1.0 0.0 1.0 0.0 1.0 0.0
8
0.0 1.0 1.0 0.0 1.0 0.0 0.0 1.0
4
0.0 1.0 1.0 0.0
8
1.0 0.0 0.0 1.0 0.0 1.0 0.0 1.0
8
0.0 1.0 0.0 1.0 1.0 0.0 1.0 0.0
8
0.0 1.0 0.0 1.0 0.0 1.0 1.0 0.0
8
0.374736 0.625264 0.589382 0.410618 0.0875116 0.912488 0.527555 0.472445
8
0.0 1.0 1.0 0.0 0.0 1.0 0.0 1.0
8
1.0 0.0 0.0 1.0 1.0 0.0 1.0 0.0
8
0.460165 0.539835 0.110493 0.889507 0.506523 0.493477 0.273441 0.726559
8
0.0 1.0 1.0 0.0 1.0 0.0 1.0 0.0
8
0.0 1.0 1.0 0.0 1.0 0.0 0.0 1.0
8
0.282743 0.717257 0.273453 0.726547 0.384529 0.615471 0.370255 0.629745
8
0.950649 0.0493505 0.243547 0.756453 0.0858982 0.914102 0.190454 0.809546
8
0.0 1.0 0.0 1.0 0.0 1.0 1.0 0.0
8
0.0 1.0 0.0 1.0 0.0 1.0 1.0 0.0
8
1.0 0.0 1.0 0.0 0.0 1.0 0.0 1.0
8
1.0 0.0 0.0 1.0 1.0 0.0 0.0 1.0
8
0.0 1.0 1.0 0.0 1.0 0.0 1.0 0.0
8
1.0 0.0 0.0 1.0 1.0 0.0 0.0 1.0
8
0.971257 0.028743 0.294483 0.705517 0.27698 0.72302 0.696364 0.303636
8
0.0 1.0 1.0 0.0 1.0 0.0 1.0 0.0
8
0.0 1.0 0.0 1.0 1.0 0.0 1.0 0.0
8
0.0 1.0 1.0 0.0 1.0 0.0 0.0 1.0
8
0.878869 0.121131 0.575847 0.424153 0.695133 0.304867 0.787751 0.212249
8
0.191741 0.808259 0.647282 0.352718 0.413371 0.586629 0.774247 0.225753
8
1.0 0.0 0.0 1.0 1.0 0.0 1.0 0.0
4
1.0 0.0 0.0 1.0
8
0.323503 0.676497 0.599276 0.400724 0.187062 0.812938 0.66385 0.33615
8
0.0 1.0 1.0 0.0 0.0 1.0 0.0 1.0
8
1.0 0.0 0.0 1.0 1.0 0.0 0.0 1.0
8
0.0 1.0 1.0 0.0 1.0 0.0 1.0 0.0
8
0.0 1.0 1.0 0.0 0.0 1.0 0.0 1.0
8
0.0 1.0 1.0 0.0 0.0 1.0 1.0 0.0
8
0.0 1.0 0.0 1.0 1.0 0.0 1.0 0.0
8
0.846986 0.153014 0.157788 0.842212 0.497918 0.502082 0.403725 0.596275
8
0.0314584 0.968542 0.537847 0.462153 0.10944 0.89056 0.214112 0.785888
8
1.0 0.0 1.0 0.0 1.0 0.0 0.0 1.0
8
0.0 1.0 0.0 1.0 0.0 1.0 1.0 0.0
8
0.0 1.0 1.0 0.0 0.0 1.0 0.0 1.0
8
0.49326 0.50674 0.530968 0.469032 0.143669 0.856331 0.837461 0.162539
8
1.0 0.0 1.0 0.0 1.0 0.0 0.0 1.0
8
1.0 0.0 1.0 0.0 0.0 1.0 1.0 0.0
8
0.829269 0.170731 0.79781 0.20219 0.841572 0.158428 0.433217 0.566783
8
1.0 0.0 1.0 0.0 0.0 1.0 1.0 0.0
8
1.0 0.0 0.0 1.0 1.0 0.0 0.0 1.0
8
0.0 1.0 1.0 0.0 1.0 0.0 1.0 0.0
8
1.0 0.0 0.0 1.0 0.0 1.0 0.0 1.0
8
1.0 0.0 1.0 0.0 0.0 1.0 0.0 1.0
8
1.0 0.0 0.0 1.0 1.0 0.0 1.0 0.0
8
0.039597 0.960403 0.38786 0.61214 0.690383 0.309617 0.0543143 0.945686
8
0.300705 0.699295 0.802531 0.197469 0.206064 0.793936 0.404288 0.595712
4
0.0 1.0 1.0 0.0
8
1.0 0.0 1.0 0.0 0.0 1.0 1.0 0.0
8
1.0 0.0 0.0 1.0 1.0 0.0 1.0 0.0
8
0.661368 0.338632 0.995851 0.00414852 0.517159 0.482841 0.0963813 0.903619
8
1.0 0.0 0.0 1.0 1.0 0.0 0.0 1.0
8
0.0 1.0 0.0 1.0 1.0 0.0 0.0 1.0
8
1.0 0.0 0.0 1.0 1.0 0.0 1.0 0.0
8
1.0 0.0 0.0 1.0 0.0 1.0 1.0 0.0
8
0.115792 0.884208 0.01878 0.98122 0.803169 0.196831 0.394471 0.605529
8
1.0 0.0 1.0 0.0 0.0 1.0 0.0 1.0
8
0.00347457 0.996525 0.410941 0.589059 0.32791 0.67209 0.517956 0.482044
8
0.0 1.0 0.0 1.0 1.0 0.0 0.0 1.0
8
1.0 0.0 1.0 0.0 1.0 0.0 0.0 1.0
8
0.0 1.0 0.0 1.0 0.0 1.0 1.0 0.0
8
1.0 0.0 0.0 1.0 0.0 1.0 0.0 1.0
8
0.0 1.0 1.0 0.0 0.0 1.0 0.0 1.0
8
0.632479 0.367521 0.790523 0.209477 0.0877806 0.912219 0.150435 0.849565
8
0.0 1.0 1.0 0.0 0.0 1.0 1.0 0.0
8
0.0 1.0 0.0 1.0 0.0 1.0 1.0 0.0
8
0.0 1.0 1.0 0.0 1.0 0.0 0.0 1.0
8
0.818508 0.181492 0.791467 0.208533 0.884877 0.115123 0.172634 0.827366
8
0.0 1.0 0.0 1.0 1.0 0.0 0.0 1.0
8
0.0 1.0 1.0 0.0 0.0 1.0 0.0 1.0
8
0.0 1.0 1.0 0.0 0.0 1.0 1.0 0.0
8
1.0 0.0 1.0 0.0 0.0 1.0 0.0 1.0
4
1.0 0.0 0.0 1.0
8
0.197857 0.802143 0.213512 0.786488 0.544288 0.455712 0.99375 0.00624965
8
1.0 0.0 1.0 0.0 0.0 1.0 1.0 0.0
8
0.195953 0.804047 0.582903 0.417097 0.478212 0.521788 0.566833 0.433167
8
0.0 1.0 0.0 1.0 1.0 0.0 0.0 1.0
8
1.0 0.0 0.0 1.0 0.0 1.0 0.0 1.0
8
0.0 1.0 0.0 1.0 1.0 0.0 0.0 1.0
8
0.899068 0.100932 0.862331 0.137669 0.349554 0.650446 0.892819 0.107181
8
0.68531 0.31469 0.771445 0.228555 0.0990064 0.900994 0.237162 0.762838
8
0.0 1.0 0.0 1.0 0.0 1.0 1.0 0.0
8
0.0 1.0 1.0 0.0 1.0 0.0 1.0 0.0
8
1.0 0.0 0.0 1.0 1.0 0.0 1.0 0.0
8
0.0 1.0 1.0 0.0 0.0 1.0 0.0 1.0
8
0.0 1.0 1.0 0.0 1.0 0.0 1.0 0.0
8
0.0 1.0 1.0 0.0 0.0 1.0 1.0 0.0
8
1.0 0.0 1.0 0.0 1.0 0.0 0.0 1.0
8
0.133838 0.866162 0.27335 0.72665 0.363544 0.636456 0.094594 0.905406
8
1.0 0.0 0.0 1.0 0.0 1.0 0.0 1.0
8
0.0 1.0 0.0 1.0 1.0 0.0 0.0 1.0
8
0.0 1.0 1.0 0.0 1.0 0.0 1.0 0.0
8
1.0 0.0 0.0 1.0 0.0 1.0 0.0 1.0
8
0.751283 0.248717 0.345658 0.654342 0.190206 0.809794 0.434605 0.565395
8
1.0 0.0 1.0 0.0 1.0 0.0 0.0 1.0
8
0.0565833 0.943417 0.230577 0.769423 0.14543 0.85457 0.806045 0.193955
8
0.672339 0.327661 0.57757 0.42243 0.287512 0.712488 0.182256 0.817744
4
0.0 1.0 1.0 0.0
8
1.0 0.0 1.0 0.0 0.0 1.0 1.0 0.0
8
0.0 1.0 0.0 1.0 0.0 1.0 1.0 0.0
8
1.0 0.0 1.0 0.0 0.0 1.0 1.0 0.0
8
0.0 1.0 1.0 0.0 1.0 0.0 0.0 1.0
8
0.0 1.0 1.0 0.0 1.0 0.0 0.0 1.0
8
0.0 1.0 0.0 1.0 1.0 0.0 0.0 1.0
8
0.0 1.0 1.0 0.0 0.0 1.0 0.0 1.0
8
0.0 1.0 0.0 1.0 1.0 0.0 0.0 1.0
8
0.0 1.0 1.0 0.0 0.0 1.0 0.0 1.0
8
0.0 1.0 0.0 1.0 0.0 1.0 1.0 0.0
8
0.439726 0.560274 0.380248 0.619752 0.659818 0.340182 0.798589 0.201411
8
1.0 0.0 0.0 1.0 0.0 1.0 0.0 1.0
8
1.0 0.0 0.0 1.0 1.0 0.0 1.0 0.0
8
1.0 0.0 1.0 0.0 0.0 1.0 1.0 0.0
8
1.0 0.0 1.0 0.0 0.0 1.0 1.0 0.0
8
0.0 1.0 1.0 0.0 1.0 0.0 1.0 0.0
8
1.0 0.0 0.0 1.0 0.0 1.0 1.0 0.0
8
0.0 1.0 1.0 0.0 0.0 1.0 0.0 1.0
8
1.0 0.0 1.0 0.0 1.0 0.0 0.0 1.0
8
1.0 0.0 1.0 0.0 0.0 1.0 0.0 1.0
8
0.364352 0.635648 0.664484 0.335516 0.861927 0.138073 0.274357 0.725643
8
0.873412 0.126588 0.945465 0.0545355 0.868933 0.131067 0.997024 0.00297563
8
0.0 1.0 1.0 0.0 0.0 1.0 0.0 1.0
8
0.427379 0.572621 0.593451 0.406549 0.558324 0.441676 0.627764 0.372236
4
0.0 1.0 1.0 0.0
8
1.0 0.0 0.0 1.0 0.0 1.0 0.0 1.0
8
1.0 0.0 1.0 0.0 0.0 1.0 1.0 0.0
8
0.0 1.0 1.0 0.0 1.0 0.0 1.0 0.0
8
1.0 0.0 0.0 1.0 0.0 1.0 1.0 0.0
8
1.0 0.0 1.0 0.0 0.0 1.0 1.0 0.0
8
1.0 0.0 1.0 0.0 1.0 0.0 0.0 1.0
8
0.907933 0.0920669 0.0234109 0.976589 0.375129 0.624871 0.52501 0.47499
8
0.0 1.0 1.0 0.0 1.0 0.0 1.0 0.0
8
0.576715 0.423285 0.22224 0.77776 0.845074 0.154926 0.627757 0.372243
8
1.0 0.0 0.0 1.0 1.0 0.0 0.0 1.0
8
0.0 1.0 1.0 0.0 1.0 0.0 1.0 0.0
8
0.0 1.0 0.0 1.0 1.0 0.0 1.0 0.0
8
0.391197 0.608803 0.369898 0.630102 0.979963 0.0200369 0.766327 0.233673
8
0.322054 0.677946 0.925767 0.0742333 0.701479 0.298521 0.844751 0.155249
8
1.0 0.0 1.0 0.0 0.0 1.0 1.0 0.0
8
0.0 1.0 0.0 1.0 1.0 0.0 0.0 1.0
8
1.0 0.0 0.0 1.0 1.0 0.0 0.0 1.0
8
1.0 0.0 0.0 1.0 0.0 1.0 1.0 0.0
8
1.0 0.0 0.0 1.0 0.0 1.0 1.0 0.0
8
1.0 0.0 1.0 0.0 0.0 1.0 1.0 0.0
8
1.0 0.0 0.0 1.0 0.0 1.0 0.0 1.0
8
0.125119 0.874881 0.884522 0.115478 0.0554042 0.944596 0.78251 0.21749
8
1.0 0.0 0.0 1.0 1.0 0.0 0.0 1.0
8
0.0 1.0 1.0 0.0 1.0 0.0 1.0 0.0